StudentsNr = 10;
InstructorsNr = 46;
DaysNr = 1;
SlotsPerDay = 20;
AvailabilitySlotsLenght = 20;
RoomNr = 2;
ProgrammNr = 2;
DegreeNr = 1;
RolesNr = 2;
CoursesNr = 6;
InstructorsProgramm = [{1, 2}, {1}, {1}, {2}, {1, 2}, {1}, {1}, {1, 2}, {2}, {2}, {1}, {1, 2}, {2}, {1}, {1, 2}, {2}, {2}, {1}, {2}, {1}, {1}, {1}, {1, 2}, {2}, {1, 2}, {1}, {1}, {2}, {1}, {1}, {1, 2}, {2}, {1}, {1}, {1}, {2}, {1}, {1}, {1}, {1}, {2}, {1}, {2}, {1}, {2}, {2}];
InstructorRolesPerProgramm = [|{2, 3, 5, 8, 11, 12, 21, 23, 27, 31, 34, 37, 42}, {6, 7, 14, 15, 22, 27, 29, 34, 40}|{5, 8, 9, 10, 12, 17, 19, 23, 31, 32, 36, 41}, {15, 16, 17, 36, 41, 45, 46}|];
InstructorsAvailability = [|0, |1, |0, |1, |1, |1, |1, |0, |0, |1, |1, |1, |0, |1, |0, |0, |1, |1, |0, |1, |0, |1, |1, |0, |1, |0, |1, |0, |0, |1, |0, |1, |0, |1, |0, |1, |1, |1, |0, |1, |0, |1, |0, |1, |0, |0|];
StudentsProgramm = [1, 2, 1, 1, 1, 2, 2, 1, 2, 1];
StudentsDegree = [1, 1, 1, 1, 1, 1, 1, 1, 1, 1];
StudentsSupervisorId = [33, 43, 37, 8, 22, 23, 10, 44, 10, 37];
StudentsCourseIds = [{}, {}, {}, {}, {}, {}, {}, {}, {}, {}];
StudentsAvailability = [|1, |0, |1, |1, |1, |1, |1, |1, |0, |0|];
TheoryticalMinCard = [1, 1, 0, 0, 0, 0, 0, 1, 0, 0];
CoursesInstructorIds = [{1, 3, 6, 7, 8, 10, 11, 13, 14, 15, 16, 19, 20, 22, 23, 24, 25, 27, 28, 29, 30, 31, 33, 34, 35, 37, 39, 40, 44, 46}, {1, 3, 4, 5, 6, 8, 10, 12, 13, 14, 15, 18, 21, 25, 27, 28, 30, 31, 32, 34, 36, 40, 41, 42, 45, 46}, {4, 6, 8, 10, 14, 16, 17, 24, 25, 32, 34, 35, 36, 37, 39, 40}, {3, 4, 5, 7, 8, 11, 16, 17, 19, 23, 27, 28, 29, 30, 31, 32, 33, 34, 35, 38, 46}, {1, 4, 5, 11, 13, 17, 18, 19, 22, 28, 35, 36, 38, 42, 43}, {1, 2, 3, 5, 6, 9, 10, 12, 13, 14, 15, 17, 18, 19, 20, 25, 26, 34, 36, 37, 38, 39, 40, 43, 46}];
RolesDemands = [6, 2];
RolesContinuity = [];
ExamLen = [1, 1, 1, 1, 1, 1, 1, 1, 1, 1];
LunchTsMinLen = 0;
LunchStarts = [5..13];
SupervisorAvailable = 0;
OptimalLunchLenght = [0, 1];
OptimalStartTs = [2, 0];
OptimalFinishTs = [0, 20];
MinimizeRooms = 100;
RolesSoftContinuity = [|1, 2|1, 0|];
SameDegreeInRoom = 0;
Mergeability = 1;
